\Problem name: 

Minimize
OBJROW: -0.00697 var(0) + 0.00532 var(1) + 0.03933 var(2) + 0.02404 var(3) -0.00347 var(4) + 0.02891 var(5) + 0.04926 var(6) + 0.03362 var(7) + 0.03373 var(8) -0.00988 var(9)
 + 0.00404 var(10) + 0.03888 var(11) + 0.04594 var(12) + 0.04124 var(13) + 0.03763 var(14) + 0.05491 var(15) + 0.03103 var(16) + 0.02526 var(17) + 0.02961 var(18) -0.01478 var(19)
 + 0.00285 var(20) + 0.00232 var(21) -0.04021 var(22) + 0.02193 var(23) + 0.01859 var(24) -0.01200 var(25) + 0.04133 var(26) + 0.02108 var(27) + 0.04688 var(28) + 0.02629 var(29)
 + 0.03732 var(30) -0.00866 var(31) + 0.04874 var(32) + 0.04180 var(33) + 0.01717 var(34) + 0.03081 var(35) + 0.01233 var(36) + 0.02446 var(37) + 0.02277 var(38) + 0.03299 var(39)
 + 0.02034 var(40) + 0.05640 var(41) + 0.03755 var(42) + 0.02862 var(43) -0.00132 var(44) + 0.00751 var(45) + 0.02224 var(46) + 0.01506 var(47) + 0.02026 var(48) -0.08480 var(49)
 + 0.04383 var(50) -0.07760 var(51) + 0.04027 var(52) + 0.00989 var(53) + 0.00991 var(54) -0.06626 var(55) + 0.02780 var(56) + 0.03038 var(57) + 0.03670 var(58) + 0.01446 var(59)
 -0.00511 var(60) -0.02963 var(61) + 0.02816 var(62) + 0.02611 var(63) + 0.00440 var(64) -0.00704 var(65) + 0.00519 var(66) + 0.01957 var(67) + 0.00156 var(68) + 0.01270 var(69)
 -0.02304 var(70) + 0.04624 var(71) + 0.03473 var(72) + 0.04196 var(73) + 0.00847 var(74) + 0.01194 var(75) -0.00241 var(76) + 0.02033 var(77) + 0.01131 var(78) -0.07225 var(79)
 + 0.01119 var(80) -0.06025 var(81) + 0.01516 var(82) -0.00452 var(83) + 0.04452 var(84) -0.07822 var(85) + 0.04836 var(86) + 0.02224 var(87) + 0.01730 var(88) -0.02751 var(89)
 + 0.01364 var(90) -0.04567 var(91) + 0.02687 var(92) + 0.01273 var(93) -0.01705 var(94) -0.01676 var(95) + 0.03202 var(96) -0.01073 var(97) + 0.01371 var(98) + 0.01926 var(99)
 -0.03292 var(100) + 0.02192 var(101) + 0.02573 var(102) + 0.01419 var(103) -0.00377 var(104) + 0.00777 var(105) -0.00138 var(106) -0.00178 var(107) -0.00947 var(108) -0.04807 var(109)
 -0.01935 var(110) -0.04938 var(111) + 0.02246 var(112) -0.01255 var(113) + 0.00791 var(114) -0.05855 var(115) + 0.03464 var(116) + 0.00518 var(117) -0.00811 var(118) -0.04950 var(119)
 + 0.00615 var(120) -0.02970 var(121) + 0.03038 var(122) -0.00109 var(123) -0.01887 var(124) -0.02216 var(125) -0.00383 var(126) -0.02444 var(127) -0.02765 var(128) + 0.00175 var(129)
 -0.02990 var(130) + 0.02766 var(131) + 0.01613 var(132) -0.00007 var(133) -0.03148 var(134) + 0.00176 var(135) -0.03758 var(136) -0.02926 var(137) -0.02557 var(138) -0.04070 var(139)
 -0.02926 var(140) -0.02828 var(141) + 0.01984 var(142) -0.01983 var(143) -0.01107 var(144) -0.03536 var(145) + 0.01742 var(146) + 0.00013 var(147) -0.02231 var(148) -0.03569 var(149)
 -0.00592 var(150) -0.00622 var(151) + 0.00818 var(152) + 0.00652 var(153) -0.02913 var(154) -0.02561 var(155) + 0.00359 var(156) -0.02486 var(157) -0.02385 var(158) -0.00370 var(159)
 -0.02722 var(160) + 0.02943 var(161) + 0.01481 var(162) + 0.00540 var(163) -0.03415 var(164) -0.00078 var(165) -0.02737 var(166) -0.01431 var(167) -0.03131 var(168) -0.01244 var(169)
 -0.02462 var(170) -0.02562 var(171) + 0.00488 var(172) -0.02191 var(173) + 0.00419 var(174) -0.01907 var(175) + 0.02148 var(176) -0.00118 var(177) + 0.00110 var(178) -0.00628 var(179)
 -0.00541 var(180) + 0.00334 var(181) + 0.01806 var(182) -0.00149 var(183) -0.01621 var(184) -0.01828 var(185) -0.01020 var(186) -0.01361 var(187) -0.01633 var(188) -0.00926 var(189)
 -0.00311 var(190) + 0.00427 var(191) + 0.02132 var(192) -0.00281 var(193) -0.01872 var(194) + 0.00313 var(195) -0.01407 var(196) -0.01649 var(197) -0.01707 var(198) -0.01762 var(199)
 -0.01617 var(200) + 0.00017 var(201) -0.01299 var(202) -0.00902 var(203) -0.00452 var(204) -0.00166 var(205) + 0.01321 var(206) -0.00277 var(207) -0.01201 var(208) -0.02268 var(209)
 -0.00742 var(210) + 0.00567 var(211) + 0.01825 var(212) -0.01265 var(213) -0.00730 var(214) -0.01218 var(215) -0.02279 var(216) -0.00894 var(217) -0.01119 var(218) -0.01234 var(219)
 -0.00442 var(220) + 0.01825 var(221) + 0.00694 var(222) -0.01265 var(223) -0.00944 var(224) + 0.00220 var(225) -0.01569 var(226) -0.01266 var(227) -0.01323 var(228) + 0.00287 var(229)
 -0.01100 var(230) + 0.00627 var(231) -0.01269 var(232) -0.01295 var(233) -0.01012 var(234) + 0.00288 var(235) + 0.01053 var(236) -0.01026 var(237) + 0.00929 var(238) + 0.00784 var(239)
 -0.00897 var(240) + 0.00391 var(241) + 0.00734 var(242) -0.00683 var(243) -0.01069 var(244) -0.01083 var(245) -0.00789 var(246) -0.00814 var(247) -0.01006 var(248) -0.00742 var(249)
 -0.00877 var(250) + 0.01221 var(251) + 0.00892 var(252) -0.00459 var(253) -0.00884 var(254) + 0.00005 var(255) -0.01331 var(256) -0.01504 var(257) -0.00750 var(258) -0.01316 var(259)
 -0.01107 var(260) -0.00484 var(261) -0.01426 var(262) -0.00975 var(263) -0.00368 var(264) -0.00379 var(265) -0.00817 var(266) -0.01153 var(267) + 0.00522 var(268) + 0.00480 var(269)
 -0.00108 var(270) -0.00165 var(271) -0.00711 var(272) -0.00168 var(273) -0.00849 var(274) -0.00226 var(275) + 0.00034 var(276) -0.00395 var(277) -0.00007 var(278) -0.00041 var(279)
 + 0.00968 var(280) + 0.00008 var(281) + 0.00146 var(282) -0.00031 var(283) -0.00359 var(284) + 0.01670 var(285) -0.00500 var(286) -0.00296 var(287) -0.00735 var(288) + 0.01046 var(289)
 -0.00265 var(290) -0.00005 var(291) + 0.00627 var(292) -0.00553 var(293) -0.00421 var(294) -0.00317 var(295) -0.00004 var(296) -0.00050 var(297) -0.00488 var(298) -0.01198 var(299)
Subject To
constr(0):  var(0) + var(30) + var(60) + var(90) + var(120) + var(150) + var(180) + var(210) + var(240) + var(270)
 = 1
constr(1):  var(1) + var(31) + var(61) + var(91) + var(121) + var(151) + var(181) + var(211) + var(241) + var(271)
 = 1
constr(2):  var(2) + var(32) + var(62) + var(92) + var(122) + var(152) + var(182) + var(212) + var(242) + var(272)
 = 1
constr(3):  var(3) + var(33) + var(63) + var(93) + var(123) + var(153) + var(183) + var(213) + var(243) + var(273)
 = 1
constr(4):  var(4) + var(34) + var(64) + var(94) + var(124) + var(154) + var(184) + var(214) + var(244) + var(274)
 = 1
constr(5):  var(5) + var(35) + var(65) + var(95) + var(125) + var(155) + var(185) + var(215) + var(245) + var(275)
 = 1
constr(6):  var(6) + var(36) + var(66) + var(96) + var(126) + var(156) + var(186) + var(216) + var(246) + var(276)
 = 1
constr(7):  var(7) + var(37) + var(67) + var(97) + var(127) + var(157) + var(187) + var(217) + var(247) + var(277)
 = 1
constr(8):  var(8) + var(38) + var(68) + var(98) + var(128) + var(158) + var(188) + var(218) + var(248) + var(278)
 = 1
constr(9):  var(9) + var(39) + var(69) + var(99) + var(129) + var(159) + var(189) + var(219) + var(249) + var(279)
 = 1
constr(10):  var(10) + var(40) + var(70) + var(100) + var(130) + var(160) + var(190) + var(220) + var(250) + var(280)
 = 1
constr(11):  var(11) + var(41) + var(71) + var(101) + var(131) + var(161) + var(191) + var(221) + var(251) + var(281)
 = 1
constr(12):  var(12) + var(42) + var(72) + var(102) + var(132) + var(162) + var(192) + var(222) + var(252) + var(282)
 = 1
constr(13):  var(13) + var(43) + var(73) + var(103) + var(133) + var(163) + var(193) + var(223) + var(253) + var(283)
 = 1
constr(14):  var(14) + var(44) + var(74) + var(104) + var(134) + var(164) + var(194) + var(224) + var(254) + var(284)
 = 1
constr(15):  var(15) + var(45) + var(75) + var(105) + var(135) + var(165) + var(195) + var(225) + var(255) + var(285)
 = 1
constr(16):  var(16) + var(46) + var(76) + var(106) + var(136) + var(166) + var(196) + var(226) + var(256) + var(286)
 = 1
constr(17):  var(17) + var(47) + var(77) + var(107) + var(137) + var(167) + var(197) + var(227) + var(257) + var(287)
 = 1
constr(18):  var(18) + var(48) + var(78) + var(108) + var(138) + var(168) + var(198) + var(228) + var(258) + var(288)
 = 1
constr(19):  var(19) + var(49) + var(79) + var(109) + var(139) + var(169) + var(199) + var(229) + var(259) + var(289)
 = 1
constr(20):  var(20) + var(50) + var(80) + var(110) + var(140) + var(170) + var(200) + var(230) + var(260) + var(290)
 = 1
constr(21):  var(21) + var(51) + var(81) + var(111) + var(141) + var(171) + var(201) + var(231) + var(261) + var(291)
 = 1
constr(22):  var(22) + var(52) + var(82) + var(112) + var(142) + var(172) + var(202) + var(232) + var(262) + var(292)
 = 1
constr(23):  var(23) + var(53) + var(83) + var(113) + var(143) + var(173) + var(203) + var(233) + var(263) + var(293)
 = 1
constr(24):  var(24) + var(54) + var(84) + var(114) + var(144) + var(174) + var(204) + var(234) + var(264) + var(294)
 = 1
constr(25):  var(25) + var(55) + var(85) + var(115) + var(145) + var(175) + var(205) + var(235) + var(265) + var(295)
 = 1
constr(26):  var(26) + var(56) + var(86) + var(116) + var(146) + var(176) + var(206) + var(236) + var(266) + var(296)
 = 1
constr(27):  var(27) + var(57) + var(87) + var(117) + var(147) + var(177) + var(207) + var(237) + var(267) + var(297)
 = 1
constr(28):  var(28) + var(58) + var(88) + var(118) + var(148) + var(178) + var(208) + var(238) + var(268) + var(298)
 = 1
constr(29):  var(29) + var(59) + var(89) + var(119) + var(149) + var(179) + var(209) + var(239) + var(269) + var(299)
 = 1
Bounds
 0 <= var(0) <= 1
 0 <= var(1) <= 1
 0 <= var(2) <= 1
 0 <= var(3) <= 1
 0 <= var(4) <= 1
 0 <= var(5) <= 1
 0 <= var(6) <= 1
 0 <= var(7) <= 1
 0 <= var(8) <= 1
 0 <= var(9) <= 1
 0 <= var(10) <= 1
 0 <= var(11) <= 1
 0 <= var(12) <= 1
 0 <= var(13) <= 1
 0 <= var(14) <= 1
 0 <= var(15) <= 1
 0 <= var(16) <= 1
 0 <= var(17) <= 1
 0 <= var(18) <= 1
 0 <= var(19) <= 1
 0 <= var(20) <= 1
 0 <= var(21) <= 1
 0 <= var(22) <= 1
 0 <= var(23) <= 1
 0 <= var(24) <= 1
 0 <= var(25) <= 1
 0 <= var(26) <= 1
 0 <= var(27) <= 1
 0 <= var(28) <= 1
 0 <= var(29) <= 1
 0 <= var(30) <= 1
 0 <= var(31) <= 1
 0 <= var(32) <= 1
 0 <= var(33) <= 1
 0 <= var(34) <= 1
 0 <= var(35) <= 1
 0 <= var(36) <= 1
 0 <= var(37) <= 1
 0 <= var(38) <= 1
 0 <= var(39) <= 1
 0 <= var(40) <= 1
 0 <= var(41) <= 1
 0 <= var(42) <= 1
 0 <= var(43) <= 1
 0 <= var(44) <= 1
 0 <= var(45) <= 1
 0 <= var(46) <= 1
 0 <= var(47) <= 1
 0 <= var(48) <= 1
 0 <= var(49) <= 1
 0 <= var(50) <= 1
 0 <= var(51) <= 1
 0 <= var(52) <= 1
 0 <= var(53) <= 1
 0 <= var(54) <= 1
 0 <= var(55) <= 1
 0 <= var(56) <= 1
 0 <= var(57) <= 1
 0 <= var(58) <= 1
 0 <= var(59) <= 1
 0 <= var(60) <= 1
 0 <= var(61) <= 1
 0 <= var(62) <= 1
 0 <= var(63) <= 1
 0 <= var(64) <= 1
 0 <= var(65) <= 1
 0 <= var(66) <= 1
 0 <= var(67) <= 1
 0 <= var(68) <= 1
 0 <= var(69) <= 1
 0 <= var(70) <= 1
 0 <= var(71) <= 1
 0 <= var(72) <= 1
 0 <= var(73) <= 1
 0 <= var(74) <= 1
 0 <= var(75) <= 1
 0 <= var(76) <= 1
 0 <= var(77) <= 1
 0 <= var(78) <= 1
 0 <= var(79) <= 1
 0 <= var(80) <= 1
 0 <= var(81) <= 1
 0 <= var(82) <= 1
 0 <= var(83) <= 1
 0 <= var(84) <= 1
 0 <= var(85) <= 1
 0 <= var(86) <= 1
 0 <= var(87) <= 1
 0 <= var(88) <= 1
 0 <= var(89) <= 1
 0 <= var(90) <= 1
 0 <= var(91) <= 1
 0 <= var(92) <= 1
 0 <= var(93) <= 1
 0 <= var(94) <= 1
 0 <= var(95) <= 1
 0 <= var(96) <= 1
 0 <= var(97) <= 1
 0 <= var(98) <= 1
 0 <= var(99) <= 1
 0 <= var(100) <= 1
 0 <= var(101) <= 1
 0 <= var(102) <= 1
 0 <= var(103) <= 1
 0 <= var(104) <= 1
 0 <= var(105) <= 1
 0 <= var(106) <= 1
 0 <= var(107) <= 1
 0 <= var(108) <= 1
 0 <= var(109) <= 1
 0 <= var(110) <= 1
 0 <= var(111) <= 1
 0 <= var(112) <= 1
 0 <= var(113) <= 1
 0 <= var(114) <= 1
 0 <= var(115) <= 1
 0 <= var(116) <= 1
 0 <= var(117) <= 1
 0 <= var(118) <= 1
 0 <= var(119) <= 1
 0 <= var(120) <= 1
 0 <= var(121) <= 1
 0 <= var(122) <= 1
 0 <= var(123) <= 1
 0 <= var(124) <= 1
 0 <= var(125) <= 1
 0 <= var(126) <= 1
 0 <= var(127) <= 1
 0 <= var(128) <= 1
 0 <= var(129) <= 1
 0 <= var(130) <= 1
 0 <= var(131) <= 1
 0 <= var(132) <= 1
 0 <= var(133) <= 1
 0 <= var(134) <= 1
 0 <= var(135) <= 1
 0 <= var(136) <= 1
 0 <= var(137) <= 1
 0 <= var(138) <= 1
 0 <= var(139) <= 1
 0 <= var(140) <= 1
 0 <= var(141) <= 1
 0 <= var(142) <= 1
 0 <= var(143) <= 1
 0 <= var(144) <= 1
 0 <= var(145) <= 1
 0 <= var(146) <= 1
 0 <= var(147) <= 1
 0 <= var(148) <= 1
 0 <= var(149) <= 1
 0 <= var(150) <= 1
 0 <= var(151) <= 1
 0 <= var(152) <= 1
 0 <= var(153) <= 1
 0 <= var(154) <= 1
 0 <= var(155) <= 1
 0 <= var(156) <= 1
 0 <= var(157) <= 1
 0 <= var(158) <= 1
 0 <= var(159) <= 1
 0 <= var(160) <= 1
 0 <= var(161) <= 1
 0 <= var(162) <= 1
 0 <= var(163) <= 1
 0 <= var(164) <= 1
 0 <= var(165) <= 1
 0 <= var(166) <= 1
 0 <= var(167) <= 1
 0 <= var(168) <= 1
 0 <= var(169) <= 1
 0 <= var(170) <= 1
 0 <= var(171) <= 1
 0 <= var(172) <= 1
 0 <= var(173) <= 1
 0 <= var(174) <= 1
 0 <= var(175) <= 1
 0 <= var(176) <= 1
 0 <= var(177) <= 1
 0 <= var(178) <= 1
 0 <= var(179) <= 1
 0 <= var(180) <= 1
 0 <= var(181) <= 1
 0 <= var(182) <= 1
 0 <= var(183) <= 1
 0 <= var(184) <= 1
 0 <= var(185) <= 1
 0 <= var(186) <= 1
 0 <= var(187) <= 1
 0 <= var(188) <= 1
 0 <= var(189) <= 1
 0 <= var(190) <= 1
 0 <= var(191) <= 1
 0 <= var(192) <= 1
 0 <= var(193) <= 1
 0 <= var(194) <= 1
 0 <= var(195) <= 1
 0 <= var(196) <= 1
 0 <= var(197) <= 1
 0 <= var(198) <= 1
 0 <= var(199) <= 1
 0 <= var(200) <= 1
 0 <= var(201) <= 1
 0 <= var(202) <= 1
 0 <= var(203) <= 1
 0 <= var(204) <= 1
 0 <= var(205) <= 1
 0 <= var(206) <= 1
 0 <= var(207) <= 1
 0 <= var(208) <= 1
 0 <= var(209) <= 1
 0 <= var(210) <= 1
 0 <= var(211) <= 1
 0 <= var(212) <= 1
 0 <= var(213) <= 1
 0 <= var(214) <= 1
 0 <= var(215) <= 1
 0 <= var(216) <= 1
 0 <= var(217) <= 1
 0 <= var(218) <= 1
 0 <= var(219) <= 1
 0 <= var(220) <= 1
 0 <= var(221) <= 1
 0 <= var(222) <= 1
 0 <= var(223) <= 1
 0 <= var(224) <= 1
 0 <= var(225) <= 1
 0 <= var(226) <= 1
 0 <= var(227) <= 1
 0 <= var(228) <= 1
 0 <= var(229) <= 1
 0 <= var(230) <= 1
 0 <= var(231) <= 1
 0 <= var(232) <= 1
 0 <= var(233) <= 1
 0 <= var(234) <= 1
 0 <= var(235) <= 1
 0 <= var(236) <= 1
 0 <= var(237) <= 1
 0 <= var(238) <= 1
 0 <= var(239) <= 1
 0 <= var(240) <= 1
 0 <= var(241) <= 1
 0 <= var(242) <= 1
 0 <= var(243) <= 1
 0 <= var(244) <= 1
 0 <= var(245) <= 1
 0 <= var(246) <= 1
 0 <= var(247) <= 1
 0 <= var(248) <= 1
 0 <= var(249) <= 1
 0 <= var(250) <= 1
 0 <= var(251) <= 1
 0 <= var(252) <= 1
 0 <= var(253) <= 1
 0 <= var(254) <= 1
 0 <= var(255) <= 1
 0 <= var(256) <= 1
 0 <= var(257) <= 1
 0 <= var(258) <= 1
 0 <= var(259) <= 1
 0 <= var(260) <= 1
 0 <= var(261) <= 1
 0 <= var(262) <= 1
 0 <= var(263) <= 1
 0 <= var(264) <= 1
 0 <= var(265) <= 1
 0 <= var(266) <= 1
 0 <= var(267) <= 1
 0 <= var(268) <= 1
 0 <= var(269) <= 1
 0 <= var(270) <= 1
 0 <= var(271) <= 1
 0 <= var(272) <= 1
 0 <= var(273) <= 1
 0 <= var(274) <= 1
 0 <= var(275) <= 1
 0 <= var(276) <= 1
 0 <= var(277) <= 1
 0 <= var(278) <= 1
 0 <= var(279) <= 1
 0 <= var(280) <= 1
 0 <= var(281) <= 1
 0 <= var(282) <= 1
 0 <= var(283) <= 1
 0 <= var(284) <= 1
 0 <= var(285) <= 1
 0 <= var(286) <= 1
 0 <= var(287) <= 1
 0 <= var(288) <= 1
 0 <= var(289) <= 1
 0 <= var(290) <= 1
 0 <= var(291) <= 1
 0 <= var(292) <= 1
 0 <= var(293) <= 1
 0 <= var(294) <= 1
 0 <= var(295) <= 1
 0 <= var(296) <= 1
 0 <= var(297) <= 1
 0 <= var(298) <= 1
 0 <= var(299) <= 1
Integers
var(0) var(1) var(2) var(3) var(4) var(5) var(6) var(7) var(8) var(9) 
var(10) var(11) var(12) var(13) var(14) var(15) var(16) var(17) var(18) var(19) 
var(20) var(21) var(22) var(23) var(24) var(25) var(26) var(27) var(28) var(29) 
var(30) var(31) var(32) var(33) var(34) var(35) var(36) var(37) var(38) var(39) 
var(40) var(41) var(42) var(43) var(44) var(45) var(46) var(47) var(48) var(49) 
var(50) var(51) var(52) var(53) var(54) var(55) var(56) var(57) var(58) var(59) 
var(60) var(61) var(62) var(63) var(64) var(65) var(66) var(67) var(68) var(69) 
var(70) var(71) var(72) var(73) var(74) var(75) var(76) var(77) var(78) var(79) 
var(80) var(81) var(82) var(83) var(84) var(85) var(86) var(87) var(88) var(89) 
var(90) var(91) var(92) var(93) var(94) var(95) var(96) var(97) var(98) var(99) 
var(100) var(101) var(102) var(103) var(104) var(105) var(106) var(107) var(108) var(109) 
var(110) var(111) var(112) var(113) var(114) var(115) var(116) var(117) var(118) var(119) 
var(120) var(121) var(122) var(123) var(124) var(125) var(126) var(127) var(128) var(129) 
var(130) var(131) var(132) var(133) var(134) var(135) var(136) var(137) var(138) var(139) 
var(140) var(141) var(142) var(143) var(144) var(145) var(146) var(147) var(148) var(149) 
var(150) var(151) var(152) var(153) var(154) var(155) var(156) var(157) var(158) var(159) 
var(160) var(161) var(162) var(163) var(164) var(165) var(166) var(167) var(168) var(169) 
var(170) var(171) var(172) var(173) var(174) var(175) var(176) var(177) var(178) var(179) 
var(180) var(181) var(182) var(183) var(184) var(185) var(186) var(187) var(188) var(189) 
var(190) var(191) var(192) var(193) var(194) var(195) var(196) var(197) var(198) var(199) 
var(200) var(201) var(202) var(203) var(204) var(205) var(206) var(207) var(208) var(209) 
var(210) var(211) var(212) var(213) var(214) var(215) var(216) var(217) var(218) var(219) 
var(220) var(221) var(222) var(223) var(224) var(225) var(226) var(227) var(228) var(229) 
var(230) var(231) var(232) var(233) var(234) var(235) var(236) var(237) var(238) var(239) 
var(240) var(241) var(242) var(243) var(244) var(245) var(246) var(247) var(248) var(249) 
var(250) var(251) var(252) var(253) var(254) var(255) var(256) var(257) var(258) var(259) 
var(260) var(261) var(262) var(263) var(264) var(265) var(266) var(267) var(268) var(269) 
var(270) var(271) var(272) var(273) var(274) var(275) var(276) var(277) var(278) var(279) 
var(280) var(281) var(282) var(283) var(284) var(285) var(286) var(287) var(288) var(289) 
var(290) var(291) var(292) var(293) var(294) var(295) var(296) var(297) var(298) var(299) 
End
